100
45 116
198 95
84 150
190 31
205 16
157 289
52 6
53 129
113 67
58 161
239 85
17 267
195 40
262 24
11 12
48 195
202 289
99 288
123 12
14 21
274 176
154 112
149 212
71 279
259 38
198 84
177 40
86 269
18 7
159 59
117 102
52 181
292 140
112 296
163 124
227 129
97 123
113 58
265 258
116 260
85 195
281 204
4 294
229 284
238 213
154 217
165 271
159 15
113 168
288 152
267 126
297 213
89 201
254 157
56 97
231 59
115 52
121 179
203 127
229 56
148 202
275 40
252 162
81 283
149 269
65 208
167 138
256 202
122 219
277 230
289 53
98 238
164 255
209 154
27 197
297 296
131 278
166 225
277 220
162 46
149 35
294 4
109 161
101 228
193 280
3 117
105 164
56 155
241 243
121 128
208 242
119 25
232 142
151 288
53 175
111 135
245 187
39 163
206 34
62 190
